(set-info :smt-lib-version 2.6)
(set-logic QF_S)
(set-info :source |
Generated by: Murphy Berzish, Mitja Kulczynski, Federico Mora, Florin Manea, Joel Day, Dirk Nowotka, Vijay Ganesh, Zhengyang Lu
Generated on: 2020-10-01
Description: Translated from a collection of real-world regex queries, AutomataArk, collected by Loris D’Antoni and Fang Wang: https://github.com/lorisdanto/automatark
Application: Evaluate solvers on real-world regex queries
Target solver: Z3str3RE, CVC4, OSTRICH, Z3seq, Z3str3, Z3-Trau
Publications: Berzish, M., Kulczynski, M., Mora, F., Manea, F., Day, J. D., Nowotka, D., & Ganesh, V. (2021, July). An SMT solver for regular expressions and linear arithmetic over string length. In CAV 2021.
|)
(set-info :license "https://creativecommons.org/licenses/by/4.0/")
(set-info :category "industrial")
(set-info :status unsat)

(declare-const X String)
(assert (str.in_re X (re.union (re.++ ((_ re.loop 2 2) (re.range "A" "z")) ((_ re.loop 9 9) (re.range "0" "9")) (re.union (str.to_re "G") (str.to_re "g")) (re.union (str.to_re "B") (str.to_re "b"))) (re.++ ((_ re.loop 12 12) (re.range "0" "9")) (str.to_re "\u{a}")))))
(assert (not (str.in_re X (re.++ (re.opt (re.++ (re.opt (str.to_re "+")) (str.to_re "420"))) (re.opt (str.to_re " ")) ((_ re.loop 3 3) (re.range "0" "9")) (re.opt (str.to_re " ")) ((_ re.loop 3 3) (re.range "0" "9")) (re.opt (str.to_re " ")) ((_ re.loop 3 3) (re.range "0" "9")) (str.to_re "\u{a}")))))
(assert (not (str.in_re X (re.++ (re.+ (re.range "0" "9")) (re.union (str.to_re "N") (str.to_re "n") (str.to_re "S") (str.to_re "s")) (str.to_re " ") (re.+ (re.range "0" "9")) (re.union (str.to_re "W") (str.to_re "w") (str.to_re "E") (str.to_re "e")) (str.to_re "\u{a}")))))
(assert (str.in_re X (re.++ ((_ re.loop 3 3) (re.range "0" "9")) (str.to_re "-") ((_ re.loop 6 6) (re.range "0" "9")) (str.to_re "\u{a}"))))
(check-sat)

(exit)
